200
1000
209
208
208
208
207
207
207
206
206
204
204
204
204
203
203
203
203
201
200
199
199
198
196
196
196
195
195
195
194
193
191
189
188
188
186
186
185
184
184
183
183
183
181
181
180
180
177
177
176
176
175
174
173
172
172
171
170
170
170
169
167
166
166
163
163
162
161
160
159
159
159
159
158
157
157
157
157
157
156
155
155
154
154
152
152
150
150
147
144
143
143
143
141
140
138
138
138
136
135
134
133
133
130
130
129
129
129
128
127
126
126
125
124
122
122
121
120
120
120
120
118
117
116
116
116
115
115
115
113
112
112
112
111
111
110
110
110
109
109
108
108
106
106
105
104
104
103
103
103
101
99
99
98
97
96
95
95
95
94
93
93
93
93
92
92
92
91
90
90
89
88
88
87
87
87
86
86
84
84
84
84
84
83
82
80
80
79
78
78
76
76
76
75
75
75
74
74
73
72
72
